p tw 1276 1960
1 2
1 73
1 74
3 4
3 74
3 75
5 6
5 100
7 8
7 101
9 10
9 76
9 77
11 12
11 77
11 78
13 14
13 102
15 16
15 103
17 18
17 79
17 80
19 20
19 80
19 81
21 22
21 104
23 24
23 105
25 26
25 82
25 83
27 28
27 83
27 84
29 30
29 106
31 32
31 107
33 34
33 85
33 86
35 36
35 86
35 87
37 38
37 108
39 40
39 109
41 42
41 88
41 89
43 44
43 89
43 90
45 46
45 110
47 48
47 111
49 50
49 91
49 92
51 52
51 92
51 93
53 54
53 112
55 56
55 113
57 58
57 94
57 95
59 60
59 95
59 96
61 62
61 114
63 64
63 115
65 66
65 97
65 98
67 68
67 98
67 99
69 70
69 116
71 72
71 117
73 74
73 136
74 75
75 137
76 77
76 138
77 78
78 139
79 80
79 124
79 125
80 81
81 140
82 83
82 119
82 120
83 84
84 141
85 86
85 131
85 132
86 87
87 142
88 89
88 143
89 90
90 127
90 128
91 92
91 144
92 93
93 122
93 123
94 95
94 145
95 96
96 134
96 135
97 98
97 146
98 99
99 147
100 149
100 150
101 220
101 221
102 118
102 119
103 223
103 224
104 130
104 131
105 226
105 227
106 125
106 126
107 197
107 198
108 231
108 232
109 121
109 122
110 158
110 159
111 133
111 134
112 161
112 162
113 128
113 129
114 186
114 187
115 241
115 242
116 164
116 165
117 244
117 245
118 119
118 169
119 120
120 171
121 122
121 174
122 123
123 160
123 161
124 125
124 170
125 126
126 155
126 156
127 128
127 157
127 158
128 129
129 178
130 131
130 152
130 153
131 132
132 172
133 134
133 176
134 135
135 180
136 166
137 148
137 149
138 167
139 168
140 151
140 152
141 154
141 155
142 173
143 175
144 177
145 179
146 181
147 163
147 164
148 149
148 209
149 150
150 191
150 192
151 152
151 210
152 153
153 201
153 202
154 155
154 188
154 189
155 156
156 212
157 158
157 198
157 199
158 159
159 214
160 161
160 215
161 162
162 194
162 195
163 164
163 218
164 165
165 204
165 205
166 182
166 183
167 200
167 201
168 349
168 350
169 183
169 184
170 192
170 193
171 211
172 213
173 206
173 207
174 189
174 190
175 265
175 266
176 207
176 208
177 185
177 186
178 216
179 203
179 204
180 217
181 195
181 196
182 183
182 246
183 184
184 222
184 223
185 186
185 254
186 187
187 240
187 241
188 189
188 251
189 190
190 232
190 233
191 192
191 219
191 220
192 193
193 249
194 195
194 237
194 238
195 196
196 257
197 198
197 229
197 230
198 199
199 253
200 201
200 248
201 202
202 225
202 226
203 204
203 256
204 205
205 243
205 244
206 207
206 252
207 208
208 235
208 236
209 247
210 250
211 328
211 329
212 228
212 229
213 301
213 302
214 234
214 235
215 255
216 238
216 239
217 352
217 353
218 258
219 220
219 278
220 221
221 279
222 223
222 281
223 224
224 262
224 263
225 226
225 283
226 227
227 274
227 275
228 229
228 284
229 230
230 269
230 270
231 232
231 259
231 260
232 233
233 285
234 235
234 271
234 272
235 236
236 287
237 238
237 266
237 267
238 239
239 288
240 241
240 289
241 242
242 290
243 244
243 292
244 245
245 293
246 277
247 331
247 332
248 280
249 282
250 268
250 269
251 263
251 264
252 275
252 276
253 286
254 260
254 261
255 334
255 335
256 272
256 273
257 291
258 344
258 345
259 260
259 320
260 261
261 323
262 263
262 297
262 298
263 264
264 317
265 266
265 304
265 305
266 267
267 324
268 269
268 314
269 270
270 300
270 301
271 272
271 321
272 273
273 307
273 308
274 275
274 316
275 276
276 319
277 365
277 366
278 312
279 294
279 295
280 295
280 296
281 313
282 298
282 299
283 315
284 318
285 303
285 304
286 381
286 382
287 322
288 306
288 307
289 325
290 309
290 310
291 310
291 311
292 326
293 327
294 295
294 340
294 341
295 296
296 355
297 298
297 332
297 333
298 299
299 356
300 301
300 358
301 302
302 346
302 347
303 304
303 360
304 305
305 338
305 339
306 307
306 343
306 344
307 308
308 363
309 310
309 335
309 336
310 311
311 364
312 441
312 442
313 403
313 404
314 341
314 342
315 415
315 416
316 350
316 351
317 357
318 337
318 338
319 359
320 329
320 330
321 347
321 348
322 418
322 419
323 361
324 362
325 478
325 479
326 456
326 457
327 353
327 354
328 329
328 374
328 375
329 330
330 397
331 332
331 366
331 367
332 333
333 393
334 335
334 384
334 385
335 336
336 401
337 338
337 395
338 339
339 380
339 381
340 341
340 392
341 342
342 372
342 373
343 344
343 400
344 345
345 390
345 391
346 347
346 377
346 378
347 348
348 399
349 350
349 369
349 370
350 351
351 394
352 353
352 387
352 388
353 354
354 402
355 368
355 369
356 371
356 372
357 375
357 376
358 396
359 378
359 379
360 398
361 383
361 384
362 453
362 454
363 386
363 387
364 389
364 390
365 366
365 421
366 367
367 422
368 369
368 424
369 370
370 425
371 372
371 409
371 410
372 373
373 427
374 375
374 404
374 405
375 376
376 429
377 378
377 416
377 417
378 379
379 430
380 381
380 432
381 382
382 412
382 413
383 384
383 434
384 385
385 407
385 408
386 387
386 435
387 388
388 419
388 420
389 390
389 437
390 391
391 438
392 423
393 426
394 428
395 410
395 411
396 489
396 490
397 431
398 406
398 407
399 433
400 413
400 414
401 436
402 439
403 404
403 461
404 405
405 463
406 407
406 466
407 408
408 452
408 453
409 410
409 462
410 411
411 447
411 448
412 413
412 449
412 450
413 414
414 470
415 416
415 444
415 445
416 417
417 464
418 419
418 468
419 420
420 472
421 458
422 440
422 441
423 512
423 513
424 459
425 460
426 515
426 516
427 443
427 444
428 518
428 519
429 446
429 447
430 465
431 523
431 524
432 467
433 450
433 451
434 469
435 471
436 533
436 534
437 473
438 455
438 456
439 536
439 537
440 441
440 501
441 442
442 483
442 484
443 444
443 502
444 445
445 493
445 494
446 447
446 480
446 481
447 448
448 504
449 450
449 490
449 491
450 451
451 506
452 453
452 507
453 454
454 486
454 487
455 456
455 510
456 457
457 496
457 497
458 474
458 475
459 492
459 493
460 641
460 642
461 475
461 476
462 484
462 485
463 503
464 505
465 498
465 499
466 481
466 482
467 557
467 558
468 499
468 500
469 477
469 478
470 508
471 495
471 496
472 509
473 487
473 488
474 475
474 538
475 476
476 514
476 515
477 478
477 546
478 479
479 532
479 533
480 481
480 543
481 482
482 524
482 525
483 484
483 511
483 512
484 485
485 541
486 487
486 529
486 530
487 488
488 549
489 490
489 521
489 522
490 491
491 545
492 493
492 540
493 494
494 517
494 518
495 496
495 548
496 497
497 535
497 536
498 499
498 544
499 500
500 527
500 528
501 539
502 542
503 620
503 621
504 520
504 521
505 593
505 594
506 526
506 527
507 547
508 530
508 531
509 644
509 645
510 550
511 512
511 570
512 513
513 571
514 515
514 573
515 516
516 554
516 555
517 518
517 575
518 519
519 566
519 567
520 521
520 576
521 522
522 561
522 562
523 524
523 551
523 552
524 525
525 577
526 527
526 563
526 564
527 528
528 579
529 530
529 558
529 559
530 531
531 580
532 533
532 581
533 534
534 582
535 536
535 584
536 537
537 585
538 569
539 623
539 624
540 572
541 574
542 560
542 561
543 555
543 556
544 567
544 568
545 578
546 552
546 553
547 626
547 627
548 564
548 565
549 583
550 636
550 637
551 552
551 612
552 553
553 615
554 555
554 589
554 590
555 556
556 609
557 558
557 596
557 597
558 559
559 616
560 561
560 606
561 562
562 592
562 593
563 564
563 613
564 565
565 599
565 600
566 567
566 608
567 568
568 611
569 657
569 658
570 604
571 586
571 587
572 587
572 588
573 605
574 590
574 591
575 607
576 610
577 595
577 596
578 673
578 674
579 614
580 598
580 599
581 617
582 601
582 602
583 602
583 603
584 618
585 619
586 587
586 632
586 633
587 588
588 647
589 590
589 624
589 625
590 591
591 648
592 593
592 650
593 594
594 638
594 639
595 596
595 652
596 597
597 630
597 631
598 599
598 635
598 636
599 600
600 655
601 602
601 627
601 628
602 603
603 656
604 733
604 734
605 695
605 696
606 633
606 634
607 707
607 708
608 642
608 643
609 649
610 629
610 630
611 651
612 621
612 622
613 639
613 640
614 710
614 711
615 653
616 654
617 770
617 771
618 748
618 749
619 645
619 646
620 621
620 666
620 667
621 622
622 689
623 624
623 658
623 659
624 625
625 685
626 627
626 676
626 677
627 628
628 693
629 630
629 687
630 631
631 672
631 673
632 633
632 684
633 634
634 664
634 665
635 636
635 692
636 637
637 682
637 683
638 639
638 669
638 670
639 640
640 691
641 642
641 661
641 662
642 643
643 686
644 645
644 679
644 680
645 646
646 694
647 660
647 661
648 663
648 664
649 667
649 668
650 688
651 670
651 671
652 690
653 675
653 676
654 745
654 746
655 678
655 679
656 681
656 682
657 658
657 713
658 659
659 714
660 661
660 716
661 662
662 717
663 664
663 701
663 702
664 665
665 719
666 667
666 696
666 697
667 668
668 721
669 670
669 708
669 709
670 671
671 722
672 673
672 724
673 674
674 704
674 705
675 676
675 726
676 677
677 699
677 700
678 679
678 727
679 680
680 711
680 712
681 682
681 729
682 683
683 730
684 715
685 718
686 720
687 702
687 703
688 781
688 782
689 723
690 698
690 699
691 725
692 705
692 706
693 728
694 731
695 696
695 753
696 697
697 755
698 699
698 758
699 700
700 744
700 745
701 702
701 754
702 703
703 739
703 740
704 705
704 741
704 742
705 706
706 762
707 708
707 736
707 737
708 709
709 756
710 711
710 760
711 712
712 764
713 750
714 732
714 733
715 804
715 805
716 751
717 752
718 807
718 808
719 735
719 736
720 810
720 811
721 738
721 739
722 757
723 815
723 816
724 759
725 742
725 743
726 761
727 763
728 825
728 826
729 765
730 747
730 748
731 828
731 829
732 733
732 793
733 734
734 775
734 776
735 736
735 794
736 737
737 785
737 786
738 739
738 772
738 773
739 740
740 796
741 742
741 782
741 783
742 743
743 798
744 745
744 799
745 746
746 778
746 779
747 748
747 802
748 749
749 788
749 789
750 766
750 767
751 784
751 785
752 933
752 934
753 767
753 768
754 776
754 777
755 795
756 797
757 790
757 791
758 773
758 774
759 849
759 850
760 791
760 792
761 769
761 770
762 800
763 787
763 788
764 801
765 779
765 780
766 767
766 830
767 768
768 806
768 807
769 770
769 838
770 771
771 824
771 825
772 773
772 835
773 774
774 816
774 817
775 776
775 803
775 804
776 777
777 833
778 779
778 821
778 822
779 780
780 841
781 782
781 813
781 814
782 783
783 837
784 785
784 832
785 786
786 809
786 810
787 788
787 840
788 789
789 827
789 828
790 791
790 836
791 792
792 819
792 820
793 831
794 834
795 912
795 913
796 812
796 813
797 885
797 886
798 818
798 819
799 839
800 822
800 823
801 936
801 937
802 842
803 804
803 862
804 805
805 863
806 807
806 865
807 808
808 846
808 847
809 810
809 867
810 811
811 858
811 859
812 813
812 868
813 814
814 853
814 854
815 816
815 843
815 844
816 817
817 869
818 819
818 855
818 856
819 820
820 871
821 822
821 850
821 851
822 823
823 872
824 825
824 873
825 826
826 874
827 828
827 876
828 829
829 877
830 861
831 915
831 916
832 864
833 866
834 852
834 853
835 847
835 848
836 859
836 860
837 870
838 844
838 845
839 918
839 919
840 856
840 857
841 875
842 928
842 929
843 844
843 904
844 845
845 907
846 847
846 881
846 882
847 848
848 901
849 850
849 888
849 889
850 851
851 908
852 853
852 898
853 854
854 884
854 885
855 856
855 905
856 857
857 891
857 892
858 859
858 900
859 860
860 903
861 949
861 950
862 896
863 878
863 879
864 879
864 880
865 897
866 882
866 883
867 899
868 902
869 887
869 888
870 965
870 966
871 906
872 890
872 891
873 909
874 893
874 894
875 894
875 895
876 910
877 911
878 879
878 924
878 925
879 880
880 939
881 882
881 916
881 917
882 883
883 940
884 885
884 942
885 886
886 930
886 931
887 888
887 944
888 889
889 922
889 923
890 891
890 927
890 928
891 892
892 947
893 894
893 919
893 920
894 895
895 948
896 1025
896 1026
897 987
897 988
898 925
898 926
899 999
899 1000
900 934
900 935
901 941
902 921
902 922
903 943
904 913
904 914
905 931
905 932
906 1002
906 1003
907 945
908 946
909 1062
909 1063
910 1040
910 1041
911 937
911 938
912 913
912 958
912 959
913 914
914 981
915 916
915 950
915 951
916 917
917 977
918 919
918 968
918 969
919 920
920 985
921 922
921 979
922 923
923 964
923 965
924 925
924 976
925 926
926 956
926 957
927 928
927 984
928 929
929 974
929 975
930 931
930 961
930 962
931 932
932 983
933 934
933 953
933 954
934 935
935 978
936 937
936 971
936 972
937 938
938 986
939 952
939 953
940 955
940 956
941 959
941 960
942 980
943 962
943 963
944 982
945 967
945 968
946 1037
946 1038
947 970
947 971
948 973
948 974
949 950
949 1005
950 951
951 1006
952 953
952 1008
953 954
954 1009
955 956
955 993
955 994
956 957
957 1011
958 959
958 988
958 989
959 960
960 1013
961 962
961 1000
961 1001
962 963
963 1014
964 965
964 1016
965 966
966 996
966 997
967 968
967 1018
968 969
969 991
969 992
970 971
970 1019
971 972
972 1003
972 1004
973 974
973 1021
974 975
975 1022
976 1007
977 1010
978 1012
979 994
979 995
980 1073
980 1074
981 1015
982 990
982 991
983 1017
984 997
984 998
985 1020
986 1023
987 988
987 1045
988 989
989 1047
990 991
990 1050
991 992
992 1036
992 1037
993 994
993 1046
994 995
995 1031
995 1032
996 997
996 1033
996 1034
997 998
998 1054
999 1000
999 1028
999 1029
1000 1001
1001 1048
1002 1003
1002 1052
1003 1004
1004 1056
1005 1042
1006 1024
1006 1025
1007 1096
1007 1097
1008 1043
1009 1044
1010 1099
1010 1100
1011 1027
1011 1028
1012 1102
1012 1103
1013 1030
1013 1031
1014 1049
1015 1107
1015 1108
1016 1051
1017 1034
1017 1035
1018 1053
1019 1055
1020 1117
1020 1118
1021 1057
1022 1039
1022 1040
1023 1120
1023 1121
1024 1025
1024 1085
1025 1026
1026 1067
1026 1068
1027 1028
1027 1086
1028 1029
1029 1077
1029 1078
1030 1031
1030 1064
1030 1065
1031 1032
1032 1088
1033 1034
1033 1074
1033 1075
1034 1035
1035 1090
1036 1037
1036 1091
1037 1038
1038 1070
1038 1071
1039 1040
1039 1094
1040 1041
1041 1080
1041 1081
1042 1058
1042 1059
1043 1076
1043 1077
1044 1225
1044 1226
1045 1059
1045 1060
1046 1068
1046 1069
1047 1087
1048 1089
1049 1082
1049 1083
1050 1065
1050 1066
1051 1141
1051 1142
1052 1083
1052 1084
1053 1061
1053 1062
1054 1092
1055 1079
1055 1080
1056 1093
1057 1071
1057 1072
1058 1059
1058 1122
1059 1060
1060 1098
1060 1099
1061 1062
1061 1130
1062 1063
1063 1116
1063 1117
1064 1065
1064 1127
1065 1066
1066 1108
1066 1109
1067 1068
1067 1095
1067 1096
1068 1069
1069 1125
1070 1071
1070 1113
1070 1114
1071 1072
1072 1133
1073 1074
1073 1105
1073 1106
1074 1075
1075 1129
1076 1077
1076 1124
1077 1078
1078 1101
1078 1102
1079 1080
1079 1132
1080 1081
1081 1119
1081 1120
1082 1083
1082 1128
1083 1084
1084 1111
1084 1112
1085 1123
1086 1126
1087 1204
1087 1205
1088 1104
1088 1105
1089 1177
1089 1178
1090 1110
1090 1111
1091 1131
1092 1114
1092 1115
1093 1228
1093 1229
1094 1134
1095 1096
1095 1154
1096 1097
1097 1155
1098 1099
1098 1157
1099 1100
1100 1138
1100 1139
1101 1102
1101 1159
1102 1103
1103 1150
1103 1151
1104 1105
1104 1160
1105 1106
1106 1145
1106 1146
1107 1108
1107 1135
1107 1136
1108 1109
1109 1161
1110 1111
1110 1147
1110 1148
1111 1112
1112 1163
1113 1114
1113 1142
1113 1143
1114 1115
1115 1164
1116 1117
1116 1165
1117 1118
1118 1166
1119 1120
1119 1168
1120 1121
1121 1169
1122 1153
1123 1207
1123 1208
1124 1156
1125 1158
1126 1144
1126 1145
1127 1139
1127 1140
1128 1151
1128 1152
1129 1162
1130 1136
1130 1137
1131 1210
1131 1211
1132 1148
1132 1149
1133 1167
1134 1220
1134 1221
1135 1136
1135 1196
1136 1137
1137 1199
1138 1139
1138 1173
1138 1174
1139 1140
1140 1193
1141 1142
1141 1180
1141 1181
1142 1143
1143 1200
1144 1145
1144 1190
1145 1146
1146 1176
1146 1177
1147 1148
1147 1197
1148 1149
1149 1183
1149 1184
1150 1151
1150 1192
1151 1152
1152 1195
1153 1241
1154 1188
1155 1170
1155 1171
1156 1171
1156 1172
1157 1189
1158 1174
1158 1175
1159 1191
1160 1194
1161 1179
1161 1180
1162 1262
1163 1198
1164 1182
1164 1183
1165 1201
1166 1185
1166 1186
1167 1186
1167 1187
1168 1202
1169 1203
1170 1171
1170 1216
1170 1217
1171 1172
1172 1231
1173 1174
1173 1208
1173 1209
1174 1175
1175 1232
1176 1177
1176 1234
1177 1178
1178 1222
1178 1223
1179 1180
1179 1236
1180 1181
1181 1214
1181 1215
1182 1183
1182 1219
1182 1220
1183 1184
1184 1239
1185 1186
1185 1211
1185 1212
1186 1187
1187 1240
1188 1243
1189 1247
1190 1217
1190 1218
1191 1251
1192 1226
1192 1227
1193 1233
1194 1213
1194 1214
1195 1235
1196 1205
1196 1206
1197 1223
1197 1224
1198 1264
1199 1237
1200 1238
1201 1271
1202 1275
1203 1229
1203 1230
1204 1205
1204 1253
1205 1206
1206 1259
1207 1208
1207 1242
1208 1209
1209 1248
1210 1211
1210 1266
1211 1212
1212 1272
1213 1214
1213 1255
1214 1215
1215 1261
1216 1217
1216 1244
1217 1218
1218 1250
1219 1220
1219 1268
1220 1221
1221 1274
1222 1223
1222 1257
1223 1224
1224 1263
1225 1226
1225 1246
1226 1227
1227 1252
1228 1229
1228 1270
1229 1230
1230 1276
1231 1245
1232 1249
1233 1254
1234 1256
1235 1258
1236 1260
1237 1265
1238 1267
1239 1269
1240 1273
